c WARNING: for repeatability, setting FPU to use double precision
d VARIABLES            120438       
d CONSTRAINTS          533396       
c ============================[ Problem Statistics ]=============================
c |                                                                             |
c |  Number of variables:        120438                                         |
c |  Number of clauses:          533396                                         |
c |  Parse time:                   0.08 s                                       |
c |                                                                             |
c ============================[ Search Statistics ]==============================
c | Conflicts |          ORIGINAL         |          LEARNT          | Progress |
c |           |    Vars  Clauses Literals |    Limit  Clauses Lit/Cl |          |
c ===============================================================================
c |       100 |  101544   479516  1163560 |   175822      100     46 | 15.688 % |
c |       250 |  101544   479516  1163560 |   193404      250     70 | 15.688 % |
c |       475 |  101544   479516  1163560 |   212745      475     75 | 15.688 % |
c |       812 |  101544   479516  1163560 |   234019      812     78 | 15.688 % |
c |      1318 |  101544   479516  1163560 |   257421     1318     79 | 15.688 % |
c |      2077 |  101544   479516  1163560 |   283163     2077     90 | 15.688 % |
c |      3216 |  101544   479516  1163560 |   311480     3216    114 | 15.688 % |
c |      4924 |  101544   479516  1163560 |   342628     4924    107 | 15.688 % |
c |      7486 |  101544   479516  1163560 |   376891     7486    119 | 15.688 % |
c |     11330 |  101544   479516  1163560 |   414580    11330    120 | 15.688 % |
c |     17096 |  101544   479516  1163560 |   456038    17096    125 | 15.688 % |
c |     25745 |  101544   479516  1163560 |   501642    25745    124 | 15.688 % |
c |     38719 |  101544   479516  1163560 |   551806    38719    133 | 15.688 % |
c |     58180 |  101544   479516  1163560 |   606987    58180    141 | 15.688 % |
c |     87372 |  101544   479516  1163560 |   667685    87372    152 | 15.688 % |
c |    131161 |  101544   479516  1163560 |   734454   131161    143 | 15.688 % |
c |    196845 |  101543   479508  1163542 |   807899   196833    143 | 15.689 % |
c |    295371 |  101543   479508  1163542 |   888689   295359    148 | 15.689 % |
c |    443160 |  101543   479508  1163542 |   977558   443148    153 | 15.689 % |
c |    664843 |  101543   479508  1163542 |  1075314   664831    160 | 15.689 % |
c |    997368 |  101540   479492  1163506 |  1182846   997318    165 | 15.691 % |
c |   1496156 |  101535   479444  1163398 |  1301130   332506    129 | 15.695 % |
c |   2244338 |  101515   479284  1163038 |  1431243  1080494    125 | 15.712 % |
c ===============================================================================
c restarts              : 4095
c conflicts             : 2400421        (1338 /sec)
c decisions             : 6709339        (0.00 % random) (3739 /sec)
c propagations          : 3355865816     (1870326 /sec)
c conflict literals     : 368241350      (39.60 % deleted)
d RESTARTS             4095
d FAILURES             2400421      
d NODES                6709339      
d BACKTRACKS           6709339      
d PROPAGATIONS         3355865816   
d NOGOODSIZE           153.41 
d MEMORY               1037.00 
d TIME                 1794.27 

s UNKNOWN
